NAME : OCPPP.gtsp.980.tour
COMMENT : Length = 980
COMMENT : Found by GLKH [Keld Helsgaun] Sun Jul 17 16:20:46 2022
TYPE : TOUR
DIMENSION : 16
TOUR_SECTION
1
23
4
26
5
22
7
17
13
27
16
31
12
29
9
19
-1
EOF
